\* ./result/ecoli/relu-encoding *\
Minimize
OBJ: __dummy
Subject To
_C1: s_0_0 + 0.296131014824 x_0_0 - x_0_1 + 0.565518498421 x_1_0
 + 0.121772639453 x_2_0 - 0.571696043015 x_3_0 - 0.287192732096 x_4_0
 + 0.275025874376 x_5_0 - 0.468634516001 x_6_0 = 0.345120966434
_C10: s_4_1 - 0.319859057665 x_0_1 + 0.199433237314 x_1_1
 - 1.38985788822 x_2_1 + 0.623414635658 x_3_1 + 0.338376909494 x_4_1 - x_4_2
 = 0.372989296913
_C11: s_5_1 + 0.427685052156 x_0_1 - 0.770870089531 x_1_1
 + 0.0676442757249 x_2_1 - 0.793215036392 x_3_1 + 0.354756623507 x_4_1 - x_5_2
 = 0.473533183336
_C12: s_6_1 + 0.819785475731 x_0_1 + 0.0119881508872 x_1_1
 + 0.00294671324082 x_2_1 - 0.295650154352 x_3_1 - 0.523363173008 x_4_1
 - x_6_2 = -0.0457025691867
_C13: x_0_1 + 1.57323408127 z_0_0 <= 1.57323408127
_C14: x_1_1 + 1.57323408127 z_1_0 <= 1.57323408127
_C15: x_2_1 + 1.57323408127 z_2_0 <= 1.57323408127
_C16: x_3_1 + 1.57323408127 z_3_0 <= 1.57323408127
_C17: x_4_1 + 1.57323408127 z_4_0 <= 1.57323408127
_C18: x_0_2 + 1.57323408127 z_0_1 <= 1.57323408127
_C19: x_1_2 + 1.57323408127 z_1_1 <= 1.57323408127
_C2: s_1_0 - 0.140407830477 x_0_0 + 0.16781796515 x_1_0 - x_1_1
 - 0.890843153 x_2_0 - 0.396712601185 x_3_0 + 0.0897665023804 x_4_0
 - 0.39300146699 x_5_0 - 0.211701780558 x_6_0 = -0.500436604023
_C20: x_2_2 + 1.57323408127 z_2_1 <= 1.57323408127
_C21: x_3_2 + 1.57323408127 z_3_1 <= 1.57323408127
_C22: x_4_2 + 1.57323408127 z_4_1 <= 1.57323408127
_C23: x_5_2 + 1.57323408127 z_5_1 <= 1.57323408127
_C24: x_6_2 + 1.57323408127 z_6_1 <= 1.57323408127
_C25: s_0_0 - 1.57323408127 z_0_0 <= 0
_C26: s_1_0 - 1.57323408127 z_1_0 <= 0
_C27: s_2_0 - 1.57323408127 z_2_0 <= 0
_C28: s_3_0 - 1.57323408127 z_3_0 <= 0
_C29: s_4_0 - 1.57323408127 z_4_0 <= 0
_C3: s_2_0 - 0.759096682072 x_0_0 + 0.379788339138 x_1_0
 - 0.762918293476 x_2_0 - x_2_1 + 0.534703433514 x_3_0 - 0.184006631374 x_4_0
 + 0.82264560461 x_5_0 + 0.633370935917 x_6_0 = -0.178752228618
_C30: s_0_1 - 1.57323408127 z_0_1 <= 0
_C31: s_1_1 - 1.57323408127 z_1_1 <= 0
_C32: s_2_1 - 1.57323408127 z_2_1 <= 0
_C33: s_3_1 - 1.57323408127 z_3_1 <= 0
_C34: s_4_1 - 1.57323408127 z_4_1 <= 0
_C35: s_5_1 - 1.57323408127 z_5_1 <= 0
_C36: s_6_1 - 1.57323408127 z_6_1 <= 0
_C4: s_3_0 + 0.414574235678 x_0_0 + 0.142287105322 x_1_0
 - 0.667613983154 x_2_0 + 0.428192555904 x_3_0 - x_3_1 + 0.443386822939 x_4_0
 + 0.251991927624 x_5_0 - 0.160491719842 x_6_0 = -0.0355998501182
_C5: s_4_0 - 0.178906157613 x_0_0 + 0.272899895906 x_1_0
 + 0.337133228779 x_2_0 - 0.597164511681 x_3_0 + 0.00956021621823 x_4_0
 - x_4_1 - 0.323191940784 x_5_0 - 0.167027443647 x_6_0 = 0.245859712362
_C6: s_0_1 - 1.22480249405 x_0_1 - x_0_2 + 0.37100687623 x_1_1
 - 0.216724619269 x_2_1 - 1.00105667114 x_3_1 - 0.604064822197 x_4_1
 = -0.695447862148
_C7: s_1_1 - 0.237872898579 x_0_1 - 0.0112649034709 x_1_1 - x_1_2
 + 0.406495660543 x_2_1 + 0.0657942965627 x_3_1 + 0.389922738075 x_4_1
 = 0.173695266247
_C8: s_2_1 + 0.246145993471 x_0_1 + 0.144727677107 x_1_1
 + 0.0724459737539 x_2_1 - x_2_2 - 0.533841848373 x_3_1 - 0.222011938691 x_4_1
 = 0.403305828571
_C9: s_3_1 - 0.892167448997 x_0_1 - 1.0360840559 x_1_1 - 0.402419030666 x_2_1
 + 0.471537530422 x_3_1 - x_3_2 - 0.144288763404 x_4_1 = -0.582128286362
Bounds
__dummy = 0
x_0_0 free
x_1_0 free
x_2_0 free
x_3_0 free
x_4_0 free
x_5_0 free
x_6_0 free
Binaries
z_0_0
z_0_1
z_1_0
z_1_1
z_2_0
z_2_1
z_3_0
z_3_1
z_4_0
z_4_1
z_5_1
z_6_1
End
